pair_style hybrid/overlay table linear 1000 lars_3B_f1 Lars_NB_00 Lars_NB_01 Lars_NB_02 Lars_NB_03 Lars_NB_04 Lars_NB_05 Lars_NB_06 Lars_NB_07 Lars_NB_08 Lars_NB_09 Lars_NB_10 Lars_NB_11 Lars_NB_12 Lars_NB_13 Lars_NB_14 Lars_NB_15 Lars_NB_16 Lars_NB_17 Lars_NB_18 Lars_NB_19 
pair_coeff      * *  lars_3B_f1      	../alphaWithSurfaceWithAmorphous_CorrectMass/FeAu_f1.sw Fe Au
pair_coeff      1 1  table           	../alphaWithSurfaceWithAmorphous_CorrectMass/out2B_0.txt LARS_2B 6
pair_coeff      2 2  table           	../alphaWithSurfaceWithAmorphous_CorrectMass/out2B_1.txt LARS_2B 6
pair_coeff      1 2  table           	../alphaWithSurfaceWithAmorphous_CorrectMass/out2B_2.txt LARS_2B 6
pair_coeff      * *  Lars_NB_00 	../alphaWithSurfaceWithAmorphous_CorrectMass/LassoLars_0_1.eam.fs Fe Au
pair_coeff      * *  Lars_NB_01 	../alphaWithSurfaceWithAmorphous_CorrectMass/LassoLars_1_1.eam.fs Fe Au
pair_coeff      * *  Lars_NB_02 	../alphaWithSurfaceWithAmorphous_CorrectMass/LassoLars_2_1.eam.fs Fe Au
pair_coeff      * *  Lars_NB_03 	../alphaWithSurfaceWithAmorphous_CorrectMass/LassoLars_3_1.eam.fs Fe Au
pair_coeff      * *  Lars_NB_04 	../alphaWithSurfaceWithAmorphous_CorrectMass/LassoLars_4_1.eam.fs Fe Au
pair_coeff      * *  Lars_NB_05 	../alphaWithSurfaceWithAmorphous_CorrectMass/LassoLars_5_1.eam.fs Fe Au
pair_coeff      * *  Lars_NB_06 	../alphaWithSurfaceWithAmorphous_CorrectMass/LassoLars_6_1.eam.fs Fe Au
pair_coeff      * *  Lars_NB_07 	../alphaWithSurfaceWithAmorphous_CorrectMass/LassoLars_7_1.eam.fs Fe Au
pair_coeff      * *  Lars_NB_08 	../alphaWithSurfaceWithAmorphous_CorrectMass/LassoLars_8_1.eam.fs Fe Au
pair_coeff      * *  Lars_NB_09 	../alphaWithSurfaceWithAmorphous_CorrectMass/LassoLars_9_1.eam.fs Fe Au
pair_coeff      * *  Lars_NB_10 	../alphaWithSurfaceWithAmorphous_CorrectMass/LassoLars_10_1.eam.fs Fe Au
pair_coeff      * *  Lars_NB_11 	../alphaWithSurfaceWithAmorphous_CorrectMass/LassoLars_11_1.eam.fs Fe Au
pair_coeff      * *  Lars_NB_12 	../alphaWithSurfaceWithAmorphous_CorrectMass/LassoLars_12_1.eam.fs Fe Au
pair_coeff      * *  Lars_NB_13 	../alphaWithSurfaceWithAmorphous_CorrectMass/LassoLars_13_1.eam.fs Fe Au
pair_coeff      * *  Lars_NB_14 	../alphaWithSurfaceWithAmorphous_CorrectMass/LassoLars_14_1.eam.fs Fe Au
pair_coeff      * *  Lars_NB_15 	../alphaWithSurfaceWithAmorphous_CorrectMass/LassoLars_15_1.eam.fs Fe Au
pair_coeff      * *  Lars_NB_16 	../alphaWithSurfaceWithAmorphous_CorrectMass/LassoLars_16_1.eam.fs Fe Au
pair_coeff      * *  Lars_NB_17 	../alphaWithSurfaceWithAmorphous_CorrectMass/LassoLars_17_1.eam.fs Fe Au
pair_coeff      * *  Lars_NB_18 	../alphaWithSurfaceWithAmorphous_CorrectMass/LassoLars_18_1.eam.fs Fe Au
pair_coeff      * *  Lars_NB_19 	../alphaWithSurfaceWithAmorphous_CorrectMass/LassoLars_19_1.eam.fs Fe Au
